p tw 23 63
1 2
1 13
1 18
1 19
1 20
1 21
2 3
2 4
2 6
2 13
2 21
3 4
3 6
3 14
3 15
4 5
4 7
4 8
4 15
5 7
5 8
5 9
8 9
8 10
8 15
8 16
10 11
10 12
10 16
11 12
12 14
12 16
13 4
13 7
13 18
14 15
14 16
15 16
17 5
17 7
17 9
17 18
17 19
18 7
18 19
19 9
19 20
20 8
20 9
20 10
20 11
20 21
21 6
21 11
21 22
22 6
22 11
22 12
22 23
23 3
23 6
23 12
23 14
